simple/SIMPLE_ResourceManager/200Dynamic1366793507.ilp
Minimize
 Cost:   LoadFunction 
Subject To
Coverage.1: f_1_0 + f_1_1 + f_1_2 + f_1_3 + f_1_4 + f_1_5 + f_1_6 + f_1_7 + f_1_8 + f_1_9 + f_1_10 + f_1_11 + f_1_12 + f_1_13 + f_1_14 + f_1_15 + f_1_16 + f_1_17 + f_1_18 + f_1_19 + f_1_20 + f_1_21 + f_1_22 + f_1_23 + f_1_24 + f_1_25 + f_1_26 + f_1_27 + f_1_28 + f_1_29  = 1
ProcLoad.M3: Load.M3  - 50 f_1_22 - 50 f_1_8 - 50 f_1_12 - 50 f_1_2 - 50 f_1_0 - 50 f_1_21 - 50 f_1_10 - 50 f_1_23 - 50 f_1_9 - 50 f_1_11 - 50 f_1_19 - 50 f_1_7 - 50 f_1_18 - 50 f_1_25 - 50 f_1_13 - 50 f_1_20 - 50 f_1_29 - 50 f_1_24 - 50 f_1_26 - 50 f_1_5 - 50 f_1_16 - 50 f_1_1 - 50 f_1_28 - 50 f_1_4 - 50 f_1_15 - 50 f_1_27 - 50 f_1_6 - 50 f_1_17 - 50 f_1_14 - 50 f_1_3 = 0
ProcLoad.M5: Load.M5  - 50 f_1_28 - 50 f_1_4 - 50 f_1_27 - 50 f_1_8 - 50 f_1_24 - 50 f_1_17 = 0
ProcLoad.M12: Load.M12  - 50 f_1_21 - 50 f_1_4 - 50 f_1_12 - 50 f_1_6 - 50 f_1_11 = 0
ProcLoad.M4: Load.M4  - 50 f_1_18 - 50 f_1_15 - 50 f_1_27 - 50 f_1_25 - 50 f_1_23 = 0
ProcLoad.M10: Load.M10  - 50 f_1_1 - 50 f_1_20 - 50 f_1_8 - 50 f_1_9 - 50 f_1_26 = 0
ProcLoad.M11: Load.M11  - 50 f_1_7 - 50 f_1_15 - 50 f_1_10 - 50 f_1_12 - 50 f_1_9 - 50 f_1_3 = 0
ProcLoad.M7: Load.M7  - 50 f_1_22 - 50 f_1_16 - 50 f_1_18 - 50 f_1_20 - 50 f_1_14 - 50 f_1_11 = 0
ProcLoad.M8: Load.M8  - 50 f_1_19 - 50 f_1_16 - 50 f_1_7 - 50 f_1_29 - 50 f_1_24 = 0
ProcLoad.M1: Load.M1  - 50 f_1_19 - 50 f_1_0 - 50 f_1_25 - 50 f_1_6 - 50 f_1_26 - 50 f_1_2 = 0
ProcLoad.M2: Load.M2  - 50 f_1_5 - 50 f_1_22 - 50 f_1_28 - 50 f_1_10 - 50 f_1_2 = 0
ProcLoad.M6: Load.M6  - 50 f_1_0 - 50 f_1_13 - 50 f_1_17 - 50 f_1_14 - 50 f_1_3 = 0
ProcLoad.M9: Load.M9  - 50 f_1_5 - 50 f_1_1 - 50 f_1_21 - 50 f_1_13 - 50 f_1_23 - 50 f_1_29 = 0
ProcLoadBound.M3: Load.M3 <= 100
ProcLoadBound.M5: Load.M5 <= 100
ProcLoadBound.M12: Load.M12 <= 100
ProcLoadBound.M4: Load.M4 <= 100
ProcLoadBound.M10: Load.M10 <= 100
ProcLoadBound.M11: Load.M11 <= 100
ProcLoadBound.M7: Load.M7 <= 100
ProcLoadBound.M8: Load.M8 <= 100
ProcLoadBound.M1: Load.M1 <= 100
ProcLoadBound.M2: Load.M2 <= 100
ProcLoadBound.M6: Load.M6 <= 100
ProcLoadBound.M9: Load.M9 <= 100
MaxProcLoadBound.M3: Load.M3 - LoadFunction <= 0
MaxProcLoadBound.M5: Load.M5 - LoadFunction <= 0
MaxProcLoadBound.M12: Load.M12 - LoadFunction <= 0
MaxProcLoadBound.M4: Load.M4 - LoadFunction <= 0
MaxProcLoadBound.M10: Load.M10 - LoadFunction <= 0
MaxProcLoadBound.M11: Load.M11 - LoadFunction <= 0
MaxProcLoadBound.M7: Load.M7 - LoadFunction <= 0
MaxProcLoadBound.M8: Load.M8 - LoadFunction <= 0
MaxProcLoadBound.M1: Load.M1 - LoadFunction <= 0
MaxProcLoadBound.M2: Load.M2 - LoadFunction <= 0
MaxProcLoadBound.M6: Load.M6 - LoadFunction <= 0
MaxProcLoadBound.M9: Load.M9 - LoadFunction <= 0
RuleLoad.S6:  2 a_1_22 + 1 a_1_8 + 1 a_1_12 + 2 a_1_0 + 1 a_1_21 + 1 a_1_10 + 1 a_1_23 + 1 a_1_9 + 2 a_1_11 + 2 a_1_19 + 1 a_1_7 + 2 a_1_18 + 2 a_1_13 + 2 a_1_20 + 1 a_1_29 + 2 a_1_24 + 1 a_1_26 + 1 a_1_1 + 2 a_1_16 + 1 a_1_4 + 1 a_1_15 + 1 a_1_27 + 1 a_1_6 + 3 a_1_14 + 2 a_1_17 + 2 a_1_3 <= 200
RuleLoad.S1:  1 a_1_22 + 1 a_1_8 + 1 a_1_12 + 3 a_1_2 + 3 a_1_0 + 1 a_1_21 + 1 a_1_10 + 1 a_1_23 + 1 a_1_9 + 1 a_1_11 + 3 a_1_19 + 1 a_1_7 + 1 a_1_18 + 3 a_1_25 + 1 a_1_13 + 1 a_1_20 + 1 a_1_29 + 1 a_1_24 + 3 a_1_26 + 1 a_1_5 + 1 a_1_16 + 1 a_1_1 + 1 a_1_28 + 1 a_1_4 + 1 a_1_15 + 1 a_1_27 + 3 a_1_6 + 1 a_1_17 + 1 a_1_14 + 1 a_1_3 <= 200
RuleLoad.S11:  2 a_1_7 + 2 a_1_15 + 1 a_1_20 + 2 a_1_10 + 2 a_1_12 + 2 a_1_9 + 2 a_1_3 <= 200
RuleLoad.S10:  1 a_1_7 + 2 a_1_20 + 2 a_1_8 + 2 a_1_12 + 2 a_1_26 + 2 a_1_1 + 1 a_1_15 + 1 a_1_10 + 3 a_1_9 + 1 a_1_3 <= 200
RuleLoad.S9:  2 a_1_8 + 3 a_1_12 + 3 a_1_21 + 1 a_1_10 + 2 a_1_23 + 2 a_1_9 + 2 a_1_11 + 1 a_1_7 + 2 a_1_13 + 1 a_1_20 + 2 a_1_29 + 2 a_1_26 + 2 a_1_5 + 3 a_1_1 + 2 a_1_4 + 1 a_1_15 + 2 a_1_6 + 1 a_1_3 <= 200
RuleLoad.S4:  1 a_1_22 + 1 a_1_8 + 1 a_1_12 + 2 a_1_0 + 1 a_1_21 + 1 a_1_10 + 2 a_1_23 + 1 a_1_9 + 1 a_1_11 + 2 a_1_19 + 1 a_1_7 + 2 a_1_18 + 2 a_1_25 + 1 a_1_13 + 1 a_1_20 + 1 a_1_29 + 1 a_1_24 + 1 a_1_26 + 1 a_1_1 + 1 a_1_16 + 1 a_1_4 + 2 a_1_15 + 2 a_1_27 + 1 a_1_6 + 1 a_1_14 + 1 a_1_17 + 1 a_1_3 <= 200
RuleLoad.S8:  2 a_1_22 + 1 a_1_8 + 1 a_1_12 + 1 a_1_21 + 1 a_1_10 + 1 a_1_23 + 1 a_1_9 + 3 a_1_11 + 2 a_1_19 + 2 a_1_7 + 2 a_1_18 + 1 a_1_13 + 2 a_1_20 + 2 a_1_29 + 2 a_1_24 + 1 a_1_26 + 1 a_1_1 + 3 a_1_16 + 1 a_1_4 + 1 a_1_15 + 1 a_1_6 + 2 a_1_14 + 1 a_1_3 <= 200
RuleLoad.S2:  3 a_1_22 + 1 a_1_8 + 1 a_1_12 + 4 a_1_2 + 2 a_1_0 + 1 a_1_21 + 3 a_1_10 + 1 a_1_23 + 1 a_1_9 + 1 a_1_11 + 2 a_1_19 + 1 a_1_7 + 1 a_1_18 + 2 a_1_25 + 1 a_1_13 + 1 a_1_20 + 1 a_1_29 + 1 a_1_24 + 3 a_1_26 + 3 a_1_5 + 1 a_1_16 + 1 a_1_1 + 3 a_1_28 + 1 a_1_4 + 1 a_1_15 + 1 a_1_27 + 3 a_1_6 + 1 a_1_17 + 1 a_1_14 + 1 a_1_3 <= 200
RuleLoad.S5:  1 a_1_22 + 2 a_1_8 + 1 a_1_12 + 1 a_1_21 + 1 a_1_10 + 1 a_1_23 + 1 a_1_9 + 1 a_1_11 + 1 a_1_7 + 1 a_1_18 + 1 a_1_13 + 1 a_1_20 + 1 a_1_29 + 2 a_1_24 + 1 a_1_26 + 2 a_1_5 + 1 a_1_1 + 1 a_1_16 + 2 a_1_28 + 2 a_1_4 + 1 a_1_15 + 2 a_1_27 + 1 a_1_6 + 1 a_1_14 + 2 a_1_17 + 1 a_1_3 <= 200
RuleLoad.S7:  2 a_1_22 + 1 a_1_7 + 2 a_1_18 + 2 a_1_20 + 2 a_1_16 + 1 a_1_15 + 1 a_1_10 + 2 a_1_14 + 1 a_1_3 + 2 a_1_11 <= 200
RuleLoad.S3:  2 a_1_22 + 2 a_1_8 + 2 a_1_12 + 2 a_1_2 + 2 a_1_0 + 2 a_1_21 + 2 a_1_10 + 2 a_1_23 + 2 a_1_9 + 2 a_1_11 + 2 a_1_19 + 2 a_1_7 + 2 a_1_18 + 2 a_1_25 + 2 a_1_13 + 2 a_1_20 + 2 a_1_29 + 2 a_1_24 + 3 a_1_26 + 3 a_1_5 + 2 a_1_16 + 2 a_1_1 + 3 a_1_28 + 2 a_1_4 + 2 a_1_15 + 2 a_1_27 + 3 a_1_6 + 2 a_1_17 + 2 a_1_14 + 2 a_1_3 <= 200
SanityCheck.1.0: f_1_0 - a_1_0 <= 0
SanityCheck.1.1: f_1_1 - a_1_1 <= 0
SanityCheck.1.2: f_1_2 - a_1_2 <= 0
SanityCheck.1.3: f_1_3 - a_1_3 <= 0
SanityCheck.1.4: f_1_4 - a_1_4 <= 0
SanityCheck.1.5: f_1_5 - a_1_5 <= 0
SanityCheck.1.6: f_1_6 - a_1_6 <= 0
SanityCheck.1.7: f_1_7 - a_1_7 <= 0
SanityCheck.1.8: f_1_8 - a_1_8 <= 0
SanityCheck.1.9: f_1_9 - a_1_9 <= 0
SanityCheck.1.10: f_1_10 - a_1_10 <= 0
SanityCheck.1.11: f_1_11 - a_1_11 <= 0
SanityCheck.1.12: f_1_12 - a_1_12 <= 0
SanityCheck.1.13: f_1_13 - a_1_13 <= 0
SanityCheck.1.14: f_1_14 - a_1_14 <= 0
SanityCheck.1.15: f_1_15 - a_1_15 <= 0
SanityCheck.1.16: f_1_16 - a_1_16 <= 0
SanityCheck.1.17: f_1_17 - a_1_17 <= 0
SanityCheck.1.18: f_1_18 - a_1_18 <= 0
SanityCheck.1.19: f_1_19 - a_1_19 <= 0
SanityCheck.1.20: f_1_20 - a_1_20 <= 0
SanityCheck.1.21: f_1_21 - a_1_21 <= 0
SanityCheck.1.22: f_1_22 - a_1_22 <= 0
SanityCheck.1.23: f_1_23 - a_1_23 <= 0
SanityCheck.1.24: f_1_24 - a_1_24 <= 0
SanityCheck.1.25: f_1_25 - a_1_25 <= 0
SanityCheck.1.26: f_1_26 - a_1_26 <= 0
SanityCheck.1.27: f_1_27 - a_1_27 <= 0
SanityCheck.1.28: f_1_28 - a_1_28 <= 0
SanityCheck.1.29: f_1_29 - a_1_29 <= 0
Bounds
 0 <= f_1_0 <= 1
 0 <= f_1_1 <= 1
 0 <= f_1_2 <= 1
 0 <= f_1_3 <= 1
 0 <= f_1_4 <= 1
 0 <= f_1_5 <= 1
 0 <= f_1_6 <= 1
 0 <= f_1_7 <= 1
 0 <= f_1_8 <= 1
 0 <= f_1_9 <= 1
 0 <= f_1_10 <= 1
 0 <= f_1_11 <= 1
 0 <= f_1_12 <= 1
 0 <= f_1_13 <= 1
 0 <= f_1_14 <= 1
 0 <= f_1_15 <= 1
 0 <= f_1_16 <= 1
 0 <= f_1_17 <= 1
 0 <= f_1_18 <= 1
 0 <= f_1_19 <= 1
 0 <= f_1_20 <= 1
 0 <= f_1_21 <= 1
 0 <= f_1_22 <= 1
 0 <= f_1_23 <= 1
 0 <= f_1_24 <= 1
 0 <= f_1_25 <= 1
 0 <= f_1_26 <= 1
 0 <= f_1_27 <= 1
 0 <= f_1_28 <= 1
 0 <= f_1_29 <= 1
Binaries
a_1_0
a_1_1
a_1_2
a_1_3
a_1_4
a_1_5
a_1_6
a_1_7
a_1_8
a_1_9
a_1_10
a_1_11
a_1_12
a_1_13
a_1_14
a_1_15
a_1_16
a_1_17
a_1_18
a_1_19
a_1_20
a_1_21
a_1_22
a_1_23
a_1_24
a_1_25
a_1_26
a_1_27
a_1_28
a_1_29
End
